c --- [ banner ] -------------------------------------------------------------
c 
c CaDiCaL Radically Simplified CDCL SAT Solver
c Copyright (c) 2016-2021 A. Biere, M. Fleury, N. Froleyks
c 
c Version 1.5.2 a5f15211db36c3956764e18194dd5bd63bf3b5e6
c g++ (GCC) 9.3.0 -Wall -Wextra -O3 -DNDEBUG
c Fri Oct 21 01:27:37 EDT 2022 Linux gra-login3 3.10.0-1160.66.1.el7.x86_64 x86_64
c 
c --- [ limit ] --------------------------------------------------------------
c 
c setting conflict limit to 200000 conflicts (due to '200000')
c 
c --- [ parsing input ] ------------------------------------------------------
c 
c reading DIMACS file from '33.cubes2596.adj'
c opening file to read '33.cubes2596.adj'
c found 'p cnf 6160 1595477' header
c parsed 1595477 clauses in 17.21 seconds process time
c closing file '33.cubes2596.adj'
c after reading 1457566788 bytes 1390.0 MB
c 
c --- [ options ] ------------------------------------------------------------
c 
c all options are set to their default value
c 
c --- [ solving ] ------------------------------------------------------------
c 
c time measured in process time since initialization
c 
c  seconds    reductions  redundant   irredundant
c          MB     restarts       trail       variables
c            level   conflicts       glue         remaining
c 
c * 17.21 1377  0 0   0    0    0  0% 0 1595422 2354 38%
c { 18.47 1430  0 0   0    0    0  0% 0 1595422 2354 38%
c i 19.70 1465 1197 0   0   24   21 39% 2 1595422 2353 38%
c i 22.46 1495 455 0  13   86   75 30% 38 1595422 2352 38%
c i 22.53 1496 448 0  14   88   76 30% 39 1595422 2351 38%
c i 23.21 1500 359 0  20  117  103 30% 43 1595422 2350 38%
c i 23.28 1501 353 0  21  119  104 30% 42 1595422 2349 38%
c i 23.60 1503 275 0  22  160  139 29% 41 1595422 2348 38%
c i 23.65 1503 257 0  22  181  151 29% 41 1595422 2347 38%
c i 23.76 1504 241 0  22  195  163 29% 40 1595422 2346 38%
c i 23.83 1504 237 0  22  199  166 29% 39 1595422 2345 38%
c i 24.09 1505 225 0  24  221  185 29% 44 1595422 2343 38%
c - 28.97 1470 168 1  29  301  213 27% 35 300700 2343 38%
c i 29.24 1417 153 1  29  334  229 26% 32 300700 2342 38%
c i 29.31 1417 152 1  29  337  231 26% 32 300700 2341 38%
c i 29.33 1417 150 1  29  341  234 26% 32 300700 2340 38%
c i 29.76 1417 131 1  29  422  295 27% 32 300700 2339 38%
c i 29.84 1417 129 1  30  439  308 27% 33 300700 2327 38%
c i 29.85 1417 129 1  30  441  309 27% 33 300700 2326 38%
c i 29.88 1417 126 1  32  452  319 27% 33 300700 2324 38%
c 
c  seconds     reductions  redundant   irredundant
c          MB      restarts       trail       variables
c             level   conflicts       glue         remaining
c 
c i 29.93 1417 124 1  32  466  328 27% 32 300700 2323 38%
c i 30.07 1417 99 1  32  624  456 28% 30 300700 2322 38%
c i 30.09 1417 96 1  32  651  477 28% 29 300700 2321 38%
c i 30.15 1417 90 1  32  712  523 28% 29 300700 2320 38%
c i 30.52 1417 88 1  38  788  577 28% 29 300700 2319 38%
c i 30.55 1417 88 1  38  792  580 28% 29 300700 2318 38%
c i 30.62 1417 85 1  38  839  617 28% 29 300700 2317 38%
c i 30.66 1417 84 1  40  863  637 28% 29 300700 2316 38%
c i 30.74 1417 83 1  45  883  653 28% 29 300700 2315 38%
c i 30.75 1417 83 1  46  885  654 28% 29 300700 2314 38%
c i 30.75 1417 83 1  46  887  655 28% 29 300700 2313 38%
c i 30.77 1417 83 1  48  892  658 28% 29 300700 2312 38%
c i 30.83 1417 82 1  50  900  662 28% 29 300700 2311 38%
c i 30.94 1417 82 1  50  916  676 28% 29 300700 2310 38%
c i 30.94 1417 82 1  50  917  676 28% 29 300700 2309 37%
c i 31.02 1417 81 1  50  930  688 28% 29 300700 2308 37%
c } 31.59 1418 79 1  56 1000  747 28% 29 300700 2308 37%
c [ 31.59 1418  0 1  56 1000  747  0% 0 300700 2308 37%
c O 31.63 1418 35 1  56 1002  749 24% 29 300700 2308 37%
c i 31.83 1418 26 1  56 1039  782 32% 19 300700 2307 37%
c 
c  seconds    reductions  redundant   irredundant
c          MB     restarts       trail       variables
c            level   conflicts       glue         remaining
c 
c i 31.86 1418 26 1  56 1052  793 32% 19 300700 2306 37%
c i 31.89 1418 26 1  56 1068  805 33% 19 300700 2305 37%
c i 31.91 1418 25 1  56 1072  808 33% 19 300700 2304 37%
c i 31.91 1418 25 1  56 1074  809 33% 19 300700 2303 37%
c i 31.94 1418 25 1  56 1092  821 33% 20 300700 2302 37%
c i 31.95 1418 26 1  56 1110  832 33% 20 300700 2301 37%
c i 31.95 1418 26 1  56 1116  837 32% 20 300700 2300 37%
c i 31.96 1418 26 1  56 1124  842 32% 20 300700 2299 37%
c i 31.97 1418 26 1  56 1133  848 32% 21 300700 2298 37%
c i 31.98 1418 26 1  56 1141  853 32% 21 300700 2297 37%
c i 31.98 1418 26 1  56 1142  853 32% 21 300700 2296 37%
c i 31.98 1418 26 1  56 1143  853 32% 21 300700 2295 37%
c - 32.60 1527 29 2  56 1189  788 32% 23 300376 2295 37%
c i 32.67 1527 29 2  56 1204  798 32% 23 300376 2294 37%
c i 32.71 1527 29 2  56 1227  816 32% 23 300376 2293 37%
c i 32.72 1527 29 2  56 1238  826 32% 23 300376 2292 37%
c i 32.76 1527 28 2  56 1266  840 32% 23 300376 2291 37%
c i 32.78 1527 28 2  56 1282  846 32% 23 300376 2290 37%
c i 32.80 1527 27 2  56 1325  877 32% 23 300376 2289 37%
c i 32.81 1527 27 2  56 1328  877 32% 23 300376 2288 37%
c 
c  seconds    reductions  redundant   irredundant
c          MB     restarts       trail       variables
c            level   conflicts       glue         remaining
c 
c i 32.88 1527 27 2  56 1495 1003 32% 23 300376 2287 37%
c ] 32.96 1527 28 2  56 1710 1176 32% 23 300376 2287 37%
c 1 32.96 1527 28 2  56 1710 1176 32% 23 300376 2287 37%
c 
c --- [ writing output ] -----------------------------------------------------
c 
c writing simplified CNF to DIMACS file 'simp/33.cubes2596.adj.simp1'
c * 32.96 1527 28 2  56 1710 1176 32% 23 300376 2287 37%
c opening file to write 'simp/33.cubes2596.adj.simp1'
c writing 'p cnf 6160 300352' header
c closing file 'simp/33.cubes2596.adj.simp1'
c after writing 154415764 bytes 147.3 MB
c wrote 300352 clauses in 1.02 seconds process time
c 
c --- [ writing extension ] --------------------------------------------------
c 
c writing extension stack to 'simp/33.cubes2596.adj.ext1'
c opening file to write 'simp/33.cubes2596.adj.ext1'
c closing file 'simp/33.cubes2596.adj.ext1'
c after writing 10780 bytes 0.0 MB
c wrote 729 witnesses in 0.00 seconds process time
c 
c --- [ result ] -------------------------------------------------------------
c 
s SATISFIABLE
c 
c --- [ run-time profiling ] -------------------------------------------------
c 
c process time taken by individual solving procedures
c (percentage relative to process time for solving)
c 
c        17.21  109.26% parse
c        15.75  100.00% search
c        13.12   83.32% unstable
c         1.37    8.67% stable
c         1.26    8.01% lucky
c         0.00    0.00% simplify
c   =================================
c        15.75   46.35% solve
c 
c last line shows process time for solving
c (percentage relative to total process time)
c 
c --- [ statistics ] ---------------------------------------------------------
c 
c chronological:               450        26.32 %  of conflicts
c conflicts:                  1710       108.57    per second
c decisions:                 15407       978.19    per second
c fixed:                       729        11.83 %  of all variables
c learned:                    1657        96.90 %  per conflict
c learned_lits:             330244       100.00 %  learned literals
c minimized:                     0         0.00 %  learned literals
c shrunken:                 164572        49.83 %  learned literals
c minishrunken:              35954        10.89 %  learned literals
c propagations:             291695         0.02 M  per second
c reduced:                     101         5.91 %  per conflict
c rephased:                      1      1710.00    interval
c restarts:                     56        30.54    interval
c stabilizing:                   1        41.52 %  of conflicts
c subsumed:                    323         0.01 %  of all clauses
c 
c seconds are measured in process time for solving
c 
c --- [ resources ] ----------------------------------------------------------
c 
c total process time since initialization:        33.98    seconds
c total real time since initialization:           34.78    seconds
c maximum resident set size of process:         1552.55    MB
c 
c --- [ shutting down ] ------------------------------------------------------
c 
c exit 10
WARNING! DIMACS header mismatch: wrong number of variables.
============================[ Problem Statistics ]=============================
|                                                                             |
|  Number of variables:          6120                                         |
|  Number of clauses:          300352                                         |
|  Parse time:                   2.21 s                                       |
|  Simplification time:          0.10 s                                       |
|                                                                             |
============================[ Search Statistics ]====================================================
| Conflicts |          ORIGINAL         |          LEARNT          | Num Sols |      SUBGRAPHS      |
|           |    Vars  Clauses Literals |    Limit  Clauses Lit/Cl |          | Canonical Noncanon. |
=====================================================================================================
|       113 |    6027   300365 33378270 |     2000      111     43 |        0 |        36        13 |
|       716 |    6027   300818 33385607 |     2000      714     20 |        0 |       136       466 |
|      1090 |    6024   300967 33388147 |     2000     1085     30 |        0 |       194       615 |
|      1939 |    6019   301479 33396785 |     2000     1929     32 |        0 |       334      1127 |
|      2552 |    6015   301586 33398350 |     3598     1546     35 |        0 |       374      1234 |
|      3825 |    6014   302100 33406082 |     3598     2818     44 |        0 |       463      1748 |
|      6236 |    6013   303372 33427154 |     4997     3433     21 |        0 |       659      3020 |
|      8398 |    6012   303826 33434300 |     6307     3105     43 |        0 |       701      3474 |
|     12695 |    6008   305561 33464507 |     7561     4254     34 |        0 |      1218      5209 |
|     18326 |    6007   307348 33492630 |     8787     6112     38 |        0 |      1520      6996 |
|     27092 |    6005   310348 33542879 |    11202     5494     24 |        0 |      2128      9996 |
|     39462 |    5993   314069 33593063 |    12401    12261     62 |        0 |      2901     13717 |
|     55627 |    5990   317260 33636799 |    16002     8029     21 |        0 |      3402     16908 |
|     82250 |    5989   324422 33742785 |    18406    18056     52 |        0 |      4607     24070 |
|    121595 |    5988   334575 33883060 |    23216    17011     45 |        0 |      5672     34223 |
|    170809 |    5987   340000 33954234 |    28009    16218     28 |        0 |      6730     39648 |
|    249269 |    5985   352775 34097016 |    34022    18691     22 |        0 |      8481     52424 |
=====================================================================================================
Number of solutions   : 0
Canonical subgraphs   : 9020           (15 /sec)
          order  3    : 1              (200000 /sec)
          order  4    : 1              (500000 /sec)
          order  5    : 1              (200000 /sec)
          order  6    : 1              (43478 /sec)
          order  7    : 1              (7042 /sec)
          order  8    : 2              (1124 /sec)
          order  9    : 7              (326 /sec)
          order 10    : 30             (99 /sec)
          order 11    : 115            (27 /sec)
          order 12    : 612            (16 /sec)
          order 13    : 3600           (20 /sec)
          order 14    : 1353           (21 /sec)
          order 15    : 854            (14 /sec)
          order 16    : 937            (10 /sec)
          order 17    : 938            (10 /sec)
          order 18    : 468            (9 /sec)
          order 19    : 82             (9 /sec)
          order 20    : 11             (9 /sec)
          order 21    : 6              (10 /sec)
          order 22    : 0              (-nan /sec)
Noncanonical subgraphs: 55409          (678 /sec)
          order  3    : 0              (-nan /sec)
          order  4    : 0              (-nan /sec)
          order  5    : 0              (-nan /sec)
          order  6    : 0              (-nan /sec)
          order  7    : 0              (-nan /sec)
          order  8    : 0              (-nan /sec)
          order  9    : 0              (-nan /sec)
          order 10    : 0              (-nan /sec)
          order 11    : 0              (-nan /sec)
          order 12    : 0              (-nan /sec)
          order 13    : 7945           (6092 /sec)
          order 14    : 40233          (844 /sec)
          order 15    : 4124           (978 /sec)
          order 16    : 1493           (585 /sec)
          order 17    : 1481           (69 /sec)
          order 18    : 127            (32 /sec)
          order 19    : 0              (-nan /sec)
          order 20    : 0              (-nan /sec)
          order 21    : 0              (-nan /sec)
Canonicity checking   : 608.168 s
Noncanonicity checking: 81.7114 s
Total canonicity time : 689.879 s
database reductions   : 28
restarts              : 683
conflicts             : 285713         (320 /sec)
decisions             : 450100         (0.00 % random) (504 /sec)
propagations          : 31380404       (35118 /sec)
conflict literals     : 26683575       (51.45 % deleted)
actual reward         : 0.111633
Memory used           : 456.00 MB
CPU time              : 893.563 s

UNSATISFIABLE
